db/data/1908618699777332512290961649915526212.z3.out
-------------------
2500.130815092
